c description: Random 3-CNF over 10 variables and 20 clauses
p cnf 10 20
-1 3 7 0
-1 4 9 0
-1 8 -9 0
3 -4 -9 0
1 3 -10 0
6 -7 8 0
2 -6 9 0
3 -8 9 0
-6 7 -9 0
-3 -9 -10 0
-2 -6 9 0
-3 -6 9 0
2 -8 10 0
-4 5 9 0
-1 -4 -6 0
1 -8 9 0
-1 -7 -8 0
8 9 -10 0
2 5 -8 0
-1 -7 9 0